2
29
43
40	31
1	2	8	15	21	4	
2	2	7	12	22	3	
3	2	19	8	17	3	
4	1	29	3	
5	2	7	8	17	7	
6	1	7	15	
7	1	22	3	
8	2	7	15	23	4	
9	1	18	6	
10	1	22	3	
11	2	12	8	19	5	
12	1	18	4	
13	2	7	14	9	5	
14	1	10	6	
15	2	8	11	17	3	
16	2	15	7	19	3	
17	1	10	9	
18	2	7	14	16	2	
19	1	22	3	
20	2	6	8	16	6	
21	1	24	3	
22	1	9	9	
23	1	17	3	
24	2	11	9	31	3	
25	1	20	2	
26	1	25	4	
27	2	7	14	21	2	
28	2	6	14	30	2	
29	1	20	8	
